results/lp/FMS_03_makespan_heurFalse.lp
\ Model JobShopModel
\ LP format - for model browsing. Use MPS format to capture full model detail.
Minimize
  0 x[0,0,0,0] + 0 x[0,1,0,1] + 0 x[0,1,1,0] + 0 x[1,0,0,0] + 0 x[1,0,0,1]
   + 0 x[1,0,1,0] + 0 x[1,1,0,0] + 0 x[1,1,0,1] + 0 x[1,1,1,1]
   + 0 x[2,0,0,0] + 0 x[2,0,0,1] + 0 x[2,0,1,0] + 0 x[2,0,1,1]
   + 0 x[2,0,2,0] + 0 x[2,1,0,0] + 0 x[2,1,0,1] + 0 x[2,1,1,0]
   + 0 x[2,1,1,1] + 0 x[2,1,2,1] + Z_FO
Subject To
 OF_constraint: - 87 y[0,0,0] - 95 y[0,0,1] - 73 y[1,0,1] - 43 y[2,0,0]
   - 61 y[2,0,1] - s[0,0,0] - s[0,0,1] - s[1,0,1] - s[2,0,0] - s[2,0,1]
   + Z_FO >= 0
 assignment_job0_stage0_constraint: y[0,0,0] + y[0,0,1] = 1
 assignment_job0_stage1_constraint: y[0,1,0] = 1
 assignment_job1_stage0_constraint: y[1,0,1] = 1
 assignment_job1_stage1_constraint: y[1,1,0] + y[1,1,1] = 1
 assignment_job2_stage0_constraint: y[2,0,0] + y[2,0,1] = 1
 assignment_job2_stage1_constraint: y[2,1,0] + y[2,1,1] = 1
 start_time_job0_stage0_machine0_constraint1: - 1e+07 y[0,0,0] + s[0,0,0]
   <= 0
 start_time_job0_stage0_machine1_constraint1: - 1e+07 y[0,0,1] + s[0,0,1]
   <= 0
 start_time_job0_stage1_machine0_constraint1: - 1e+07 y[0,1,0] + s[0,1,0]
   <= 0
 start_time_job1_stage0_machine1_constraint1: - 1e+07 y[1,0,1] + s[1,0,1]
   <= 0
 start_time_job1_stage1_machine0_constraint1: - 1e+07 y[1,1,0] + s[1,1,0]
   <= 0
 start_time_job1_stage1_machine1_constraint1: - 1e+07 y[1,1,1] + s[1,1,1]
   <= 0
 start_time_job2_stage0_machine0_constraint1: - 1e+07 y[2,0,0] + s[2,0,0]
   <= 0
 start_time_job2_stage0_machine1_constraint1: - 1e+07 y[2,0,1] + s[2,0,1]
   <= 0
 start_time_job2_stage1_machine0_constraint1: - 1e+07 y[2,1,0] + s[2,1,0]
   <= 0
 start_time_job2_stage1_machine1_constraint1: - 1e+07 y[2,1,1] + s[2,1,1]
   <= 0
 R17: - 43 y[0,1,0] + s[0,0,0] + s[0,0,1] - s[0,1,0] >= 0
 R18: - 63 y[1,1,0] - 53 y[1,1,1] + s[1,0,1] - s[1,1,0] - s[1,1,1] >= 0
 R19: - 125 y[2,1,0] - 135 y[2,1,1] + s[2,0,0] + s[2,0,1] - s[2,1,0]
   - s[2,1,1] >= 0
 precedence_between_0,0_to_0,1_if_x_[0,0,0,1,0]=0,_i.e._0,1_before_0,0:
   - 1e+07 y[0,0,0] - 1e+07 y[0,1,0] + 1e+07 x[0,0,0,1] - s[0,0,0]
   + s[0,1,0] >= -1.9999388e+07
 precedence_between_0,1_to_0,0_if_x_[0,0,0,1,0]=1,_i.e._0,0_before_0,1:
   - 1e+07 y[0,0,0] - 1e+07 y[0,1,0] - 1e+07 x[0,0,0,1] + s[0,0,0]
   - s[0,1,0] >= -2.9999827e+07
 precedence_between_0,0_to_1,0_if_x_[0,0,1,0,1]=0,_i.e._1,0_before_0,0:
   - 1e+07 y[0,0,1] - 1e+07 y[1,0,1] + 1e+07 x[0,0,1,0] - s[0,0,1]
   + s[1,0,1] >= -1.9999555e+07
 precedence_between_1,0_to_0,0_if_x_[0,0,1,0,1]=1,_i.e._0,0_before_1,0:
   - 1e+07 y[0,0,1] - 1e+07 y[1,0,1] - 1e+07 x[0,0,1,0] + s[0,0,1]
   - s[1,0,1] >= -2.9999759e+07
 precedence_between_0,0_to_1,1_if_x_[0,0,1,1,0]=0,_i.e._1,1_before_0,0:
   - 1e+07 y[0,0,0] - 1e+07 y[1,1,0] + 1e+07 x[0,0,1,1] - s[0,0,0]
   + s[1,1,0] >= -1.9999613e+07
 precedence_between_1,1_to_0,0_if_x_[0,0,1,1,0]=1,_i.e._0,0_before_1,1:
   - 1e+07 y[0,0,0] - 1e+07 y[1,1,0] - 1e+07 x[0,0,1,1] + s[0,0,0]
   - s[1,1,0] >= -2.9999601e+07
 precedence_between_0,0_to_1,1_if_x_[0,0,1,1,1]=0,_i.e._1,1_before_0,0:
   - 1e+07 y[0,0,1] - 1e+07 y[1,1,1] + 1e+07 x[0,0,1,1] - s[0,0,1]
   + s[1,1,1] >= -1.9999725e+07
 precedence_between_1,1_to_0,0_if_x_[0,0,1,1,1]=1,_i.e._0,0_before_1,1:
   - 1e+07 y[0,0,1] - 1e+07 y[1,1,1] - 1e+07 x[0,0,1,1] + s[0,0,1]
   - s[1,1,1] >= -2.9999707e+07
 precedence_between_0,0_to_2,0_if_x_[0,0,2,0,0]=0,_i.e._2,0_before_0,0:
   - 1e+07 y[0,0,0] - 1e+07 y[2,0,0] + 1e+07 x[0,0,2,0] - s[0,0,0]
   + s[2,0,0] >= -1.9999791e+07
 precedence_between_2,0_to_0,0_if_x_[0,0,2,0,0]=1,_i.e._0,0_before_2,0:
   - 1e+07 y[0,0,0] - 1e+07 y[2,0,0] - 1e+07 x[0,0,2,0] + s[0,0,0]
   - s[2,0,0] >= -2.9999833e+07
 precedence_between_0,0_to_2,0_if_x_[0,0,2,0,1]=0,_i.e._2,0_before_0,0:
   - 1e+07 y[0,0,1] - 1e+07 y[2,0,1] + 1e+07 x[0,0,2,0] - s[0,0,1]
   + s[2,0,1] >= -1.9999572e+07
 precedence_between_2,0_to_0,0_if_x_[0,0,2,0,1]=1,_i.e._0,0_before_2,0:
   - 1e+07 y[0,0,1] - 1e+07 y[2,0,1] - 1e+07 x[0,0,2,0] + s[0,0,1]
   - s[2,0,1] >= -2.9999886e+07
 precedence_between_0,0_to_2,1_if_x_[0,0,2,1,0]=0,_i.e._2,1_before_0,0:
   - 1e+07 y[0,0,0] - 1e+07 y[2,1,0] + 1e+07 x[0,0,2,1] - s[0,0,0]
   + s[2,1,0] >= -1.9999608e+07
 precedence_between_2,1_to_0,0_if_x_[0,0,2,1,0]=1,_i.e._0,0_before_2,1:
   - 1e+07 y[0,0,0] - 1e+07 y[2,1,0] - 1e+07 x[0,0,2,1] + s[0,0,0]
   - s[2,1,0] >= -2.999977e+07
 precedence_between_0,0_to_2,1_if_x_[0,0,2,1,1]=0,_i.e._2,1_before_0,0:
   - 1e+07 y[0,0,1] - 1e+07 y[2,1,1] + 1e+07 x[0,0,2,1] - s[0,0,1]
   + s[2,1,1] >= -1.999974e+07
 precedence_between_2,1_to_0,0_if_x_[0,0,2,1,1]=1,_i.e._0,0_before_2,1:
   - 1e+07 y[0,0,1] - 1e+07 y[2,1,1] - 1e+07 x[0,0,2,1] + s[0,0,1]
   - s[2,1,1] >= -2.999925e+07
 precedence_between_0,1_to_0,0_if_x_[0,1,0,0,0]=0,_i.e._0,0_before_0,1:
   - 1e+07 y[0,0,0] - 1e+07 y[0,1,0] + 1e+07 x[0,1,0,0] + s[0,0,0]
   - s[0,1,0] >= -1.9999827e+07
 precedence_between_0,0_to_0,1_if_x_[0,1,0,0,0]=1,_i.e._0,1_before_0,0:
   - 1e+07 y[0,0,0] - 1e+07 y[0,1,0] - 1e+07 x[0,1,0,0] - s[0,0,0]
   + s[0,1,0] >= -2.9999388e+07
 precedence_between_0,1_to_1,1_if_x_[0,1,1,1,0]=0,_i.e._1,1_before_0,1:
   - 1e+07 y[0,1,0] - 1e+07 y[1,1,0] + 1e+07 x[0,1,1,1] - s[0,1,0]
   + s[1,1,0] >= -1.9999561e+07
 precedence_between_1,1_to_0,1_if_x_[0,1,1,1,0]=1,_i.e._0,1_before_1,1:
   - 1e+07 y[0,1,0] - 1e+07 y[1,1,0] - 1e+07 x[0,1,1,1] + s[0,1,0]
   - s[1,1,0] >= -2.9999347e+07
 precedence_between_0,1_to_2,0_if_x_[0,1,2,0,0]=0,_i.e._2,0_before_0,1:
   - 1e+07 y[0,1,0] - 1e+07 y[2,0,0] + 1e+07 x[0,1,2,0] - s[0,1,0]
   + s[2,0,0] >= -1.9999844e+07
 precedence_between_2,0_to_0,1_if_x_[0,1,2,0,0]=1,_i.e._0,1_before_2,0:
   - 1e+07 y[0,1,0] - 1e+07 y[2,0,0] - 1e+07 x[0,1,2,0] + s[0,1,0]
   - s[2,0,0] >= -2.9999307e+07
 precedence_between_0,1_to_2,1_if_x_[0,1,2,1,0]=0,_i.e._2,1_before_0,1:
   - 1e+07 y[0,1,0] - 1e+07 y[2,1,0] + 1e+07 x[0,1,2,1] - s[0,1,0]
   + s[2,1,0] >= -1.9999425e+07
 precedence_between_2,1_to_0,1_if_x_[0,1,2,1,0]=1,_i.e._0,1_before_2,1:
   - 1e+07 y[0,1,0] - 1e+07 y[2,1,0] - 1e+07 x[0,1,2,1] + s[0,1,0]
   - s[2,1,0] >= -2.9999674e+07
 precedence_between_1,0_to_1,1_if_x_[1,0,1,1,1]=0,_i.e._1,1_before_1,0:
   - 1e+07 y[1,0,1] - 1e+07 y[1,1,1] + 1e+07 x[1,0,1,1] - s[1,0,1]
   + s[1,1,1] >= -1.9999603e+07
 precedence_between_1,1_to_1,0_if_x_[1,0,1,1,1]=1,_i.e._1,0_before_1,1:
   - 1e+07 y[1,0,1] - 1e+07 y[1,1,1] - 1e+07 x[1,0,1,1] + s[1,0,1]
   - s[1,1,1] >= -2.9999615e+07
 precedence_between_1,0_to_2,0_if_x_[1,0,2,0,1]=0,_i.e._2,0_before_1,0:
   - 1e+07 y[1,0,1] - 1e+07 y[2,0,1] + 1e+07 x[1,0,2,0] - s[1,0,1]
   + s[2,0,1] >= -1.9999588e+07
 precedence_between_2,0_to_1,0_if_x_[1,0,2,0,1]=1,_i.e._1,0_before_2,0:
   - 1e+07 y[1,0,1] - 1e+07 y[2,0,1] - 1e+07 x[1,0,2,0] + s[1,0,1]
   - s[2,0,1] >= -2.9999574e+07
 precedence_between_1,0_to_2,1_if_x_[1,0,2,1,1]=0,_i.e._2,1_before_1,0:
   - 1e+07 y[1,0,1] - 1e+07 y[2,1,1] + 1e+07 x[1,0,2,1] - s[1,0,1]
   + s[2,1,1] >= -1.9999814e+07
 precedence_between_2,1_to_1,0_if_x_[1,0,2,1,1]=1,_i.e._1,0_before_2,1:
   - 1e+07 y[1,0,1] - 1e+07 y[2,1,1] - 1e+07 x[1,0,2,1] + s[1,0,1]
   - s[2,1,1] >= -2.9999685e+07
 precedence_between_1,1_to_1,0_if_x_[1,1,1,0,1]=0,_i.e._1,0_before_1,1:
   - 1e+07 y[1,0,1] - 1e+07 y[1,1,1] + 1e+07 x[1,1,1,0] + s[1,0,1]
   - s[1,1,1] >= -1.9999615e+07
 precedence_between_1,0_to_1,1_if_x_[1,1,1,0,1]=1,_i.e._1,1_before_1,0:
   - 1e+07 y[1,0,1] - 1e+07 y[1,1,1] - 1e+07 x[1,1,1,0] - s[1,0,1]
   + s[1,1,1] >= -2.9999603e+07
 precedence_between_1,1_to_2,0_if_x_[1,1,2,0,0]=0,_i.e._2,0_before_1,1:
   - 1e+07 y[1,1,0] - 1e+07 y[2,0,0] + 1e+07 x[1,1,2,0] - s[1,1,0]
   + s[2,0,0] >= -1.9999805e+07
 precedence_between_2,0_to_1,1_if_x_[1,1,2,0,0]=1,_i.e._1,1_before_2,0:
   - 1e+07 y[1,1,0] - 1e+07 y[2,0,0] - 1e+07 x[1,1,2,0] + s[1,1,0]
   - s[2,0,0] >= -2.9999699e+07
 precedence_between_1,1_to_2,0_if_x_[1,1,2,0,1]=0,_i.e._2,0_before_1,1:
   - 1e+07 y[1,1,1] - 1e+07 y[2,0,1] + 1e+07 x[1,1,2,0] - s[1,1,1]
   + s[2,0,1] >= -1.9999826e+07
 precedence_between_2,0_to_1,1_if_x_[1,1,2,0,1]=1,_i.e._1,1_before_2,0:
   - 1e+07 y[1,1,1] - 1e+07 y[2,0,1] - 1e+07 x[1,1,2,0] + s[1,1,1]
   - s[2,0,1] >= -2.9999459e+07
 precedence_between_1,1_to_2,1_if_x_[1,1,2,1,0]=0,_i.e._2,1_before_1,1:
   - 1e+07 y[1,1,0] - 1e+07 y[2,1,0] + 1e+07 x[1,1,2,1] - s[1,1,0]
   + s[2,1,0] >= -1.9999628e+07
 precedence_between_2,1_to_1,1_if_x_[1,1,2,1,0]=1,_i.e._1,1_before_2,1:
   - 1e+07 y[1,1,0] - 1e+07 y[2,1,0] - 1e+07 x[1,1,2,1] + s[1,1,0]
   - s[2,1,0] >= -2.9999705e+07
 precedence_between_1,1_to_2,1_if_x_[1,1,2,1,1]=0,_i.e._2,1_before_1,1:
   - 1e+07 y[1,1,1] - 1e+07 y[2,1,1] + 1e+07 x[1,1,2,1] - s[1,1,1]
   + s[2,1,1] >= -1.9999893e+07
 precedence_between_2,1_to_1,1_if_x_[1,1,2,1,1]=1,_i.e._1,1_before_2,1:
   - 1e+07 y[1,1,1] - 1e+07 y[2,1,1] - 1e+07 x[1,1,2,1] + s[1,1,1]
   - s[2,1,1] >= -2.9999665e+07
 precedence_between_2,0_to_2,1_if_x_[2,0,2,1,0]=0,_i.e._2,1_before_2,0:
   - 1e+07 y[2,0,0] - 1e+07 y[2,1,0] + 1e+07 x[2,0,2,1] - s[2,0,0]
   + s[2,1,0] >= -1.9999798e+07
 precedence_between_2,1_to_2,0_if_x_[2,0,2,1,0]=1,_i.e._2,0_before_2,1:
   - 1e+07 y[2,0,0] - 1e+07 y[2,1,0] - 1e+07 x[2,0,2,1] + s[2,0,0]
   - s[2,1,0] >= -2.9999814e+07
 precedence_between_2,0_to_2,1_if_x_[2,0,2,1,1]=0,_i.e._2,1_before_2,0:
   - 1e+07 y[2,0,1] - 1e+07 y[2,1,1] + 1e+07 x[2,0,2,1] - s[2,0,1]
   + s[2,1,1] >= -1.9999576e+07
 precedence_between_2,1_to_2,0_if_x_[2,0,2,1,1]=1,_i.e._2,0_before_2,1:
   - 1e+07 y[2,0,1] - 1e+07 y[2,1,1] - 1e+07 x[2,0,2,1] + s[2,0,1]
   - s[2,1,1] >= -2.9999769e+07
 precedence_between_2,1_to_2,0_if_x_[2,1,2,0,0]=0,_i.e._2,0_before_2,1:
   - 1e+07 y[2,0,0] - 1e+07 y[2,1,0] + 1e+07 x[2,1,2,0] + s[2,0,0]
   - s[2,1,0] >= -1.9999814e+07
 precedence_between_2,0_to_2,1_if_x_[2,1,2,0,0]=1,_i.e._2,1_before_2,0:
   - 1e+07 y[2,0,0] - 1e+07 y[2,1,0] - 1e+07 x[2,1,2,0] - s[2,0,0]
   + s[2,1,0] >= -2.9999798e+07
 precedence_between_2,1_to_2,0_if_x_[2,1,2,0,1]=0,_i.e._2,0_before_2,1:
   - 1e+07 y[2,0,1] - 1e+07 y[2,1,1] + 1e+07 x[2,1,2,0] + s[2,0,1]
   - s[2,1,1] >= -1.9999769e+07
 precedence_between_2,0_to_2,1_if_x_[2,1,2,0,1]=1,_i.e._2,1_before_2,0:
   - 1e+07 y[2,0,1] - 1e+07 y[2,1,1] - 1e+07 x[2,1,2,0] - s[2,0,1]
   + s[2,1,1] >= -2.9999576e+07
 start_time_domain_job0_stage0_machine0_constraint: s[0,0,0] >= 0
 start_time_domain_job0_stage0_machine1_constraint: s[0,0,1] >= 0
 initial_start_time_job0_stage0_machine0_constraint: - 480 y[0,1,0]
   + s[0,1,0] >= 0
 start_time_domain_job0_stage1_machine0_constraint: s[0,1,0] >= 0
 start_time_domain_job1_stage0_machine1_constraint: s[1,0,1] >= 0
 initial_start_time_job1_stage0_machine0_constraint: - 480 y[1,1,0]
   + s[1,1,0] >= 0
 start_time_domain_job1_stage1_machine0_constraint: s[1,1,0] >= 0
 initial_start_time_job1_stage0_machine1_constraint: - 480 y[1,1,1]
   + s[1,1,1] >= 0
 start_time_domain_job1_stage1_machine1_constraint: s[1,1,1] >= 0
 start_time_domain_job2_stage0_machine0_constraint: s[2,0,0] >= 0
 start_time_domain_job2_stage0_machine1_constraint: s[2,0,1] >= 0
 initial_start_time_job2_stage0_machine0_constraint: - 480 y[2,1,0]
   + s[2,1,0] >= 0
 start_time_domain_job2_stage1_machine0_constraint: s[2,1,0] >= 0
 initial_start_time_job2_stage0_machine1_constraint: - 480 y[2,1,1]
   + s[2,1,1] >= 0
 start_time_domain_job2_stage1_machine1_constraint: s[2,1,1] >= 0
Bounds
Binaries
 y[0,0,0] y[0,0,1] y[0,1,0] y[1,0,1] y[1,1,0] y[1,1,1] y[2,0,0] y[2,0,1]
 y[2,1,0] y[2,1,1] x[0,0,0,0] x[0,0,0,1] x[0,0,1,0] x[0,0,1,1] x[0,0,2,0]
 x[0,0,2,1] x[0,1,0,0] x[0,1,0,1] x[0,1,1,0] x[0,1,1,1] x[0,1,2,0]
 x[0,1,2,1] x[1,0,0,0] x[1,0,0,1] x[1,0,1,0] x[1,0,1,1] x[1,0,2,0]
 x[1,0,2,1] x[1,1,0,0] x[1,1,0,1] x[1,1,1,0] x[1,1,1,1] x[1,1,2,0]
 x[1,1,2,1] x[2,0,0,0] x[2,0,0,1] x[2,0,1,0] x[2,0,1,1] x[2,0,2,0]
 x[2,0,2,1] x[2,1,0,0] x[2,1,0,1] x[2,1,1,0] x[2,1,1,1] x[2,1,2,0]
 x[2,1,2,1]
Generals
 s[0,0,0] s[0,0,1] s[0,1,0] s[1,0,1] s[1,1,0] s[1,1,1] s[2,0,0] s[2,0,1]
 s[2,1,0] s[2,1,1] Z_FO
End
