results/log/FMS_03_makespan_heurFalse.log

Gurobi 10.0.1 (win64) logging started Sun Oct  8 04:17:23 2023

Set parameter LogFile to value "./results//log/FMS_03_makespan_heurFalse.log"
Gurobi Optimizer version 10.0.1 build v10.0.1rc0 (win64)

CPU model: AMD Ryzen 7 3700X 8-Core Processor, instruction set [SSE2|AVX|AVX2]
Thread count: 8 physical cores, 16 logical processors, using up to 16 threads

Optimize a model with 83 rows, 57 columns and 316 nonzeros
Model fingerprint: 0x292b1e67
Variable types: 0 continuous, 57 integer (46 binary)
Coefficient statistics:
  Matrix range     [1e+00, 1e+07]
  Objective range  [1e+00, 1e+00]
  Bounds range     [1e+00, 1e+00]
  RHS range        [1e+00, 3e+07]
Presolve removed 20 rows and 26 columns
Presolve time: 0.01s
Presolved: 63 rows, 31 columns, 256 nonzeros
Variable types: 0 continuous, 31 integer (21 binary)
Found heuristic solution: objective 3530.0000000
Found heuristic solution: objective 3284.0000000
Found heuristic solution: objective 3158.0000000

Root relaxation: objective 1.864000e+03, 19 iterations, 0.00 seconds (0.00 work units)

    Nodes    |    Current Node    |     Objective Bounds      |     Work
 Expl Unexpl |  Obj  Depth IntInf | Incumbent    BestBd   Gap | It/Node Time

     0     0 1864.00023    0   11 3158.00000 1864.00023  41.0%     -    0s
     0     0 1874.00000    0   10 3158.00000 1874.00000  40.7%     -    0s
H    0     0                    2962.0000000 1874.00000  36.7%     -    0s
H    0     0                    2842.0000000 1874.00000  34.1%     -    0s
H    0     0                    2716.0000000 1874.00000  31.0%     -    0s
H    0     0                    2620.0000000 1874.00000  28.5%     -    0s
     0     0 2206.00021    0   13 2620.00000 2206.00021  15.8%     -    0s
     0     0 2214.00000    0   15 2620.00000 2214.00000  15.5%     -    0s
     0     0 2323.00000    0   17 2620.00000 2323.00000  11.3%     -    0s
     0     0 2354.00000    0   15 2620.00000 2354.00000  10.2%     -    0s
     0     0 2545.00000    0    9 2620.00000 2545.00000  2.86%     -    0s
     0     0 2592.00000    0   11 2620.00000 2592.00000  1.07%     -    0s
     0     0 2620.00000    0   12 2620.00000 2620.00000  0.00%     -    0s

Cutting planes:
  Learned: 3
  Implied bound: 1
  MIR: 4
  Flow cover: 1
  RLT: 1
  Relax-and-lift: 1

Explored 1 nodes (72 simplex iterations) in 0.11 seconds (0.00 work units)
Thread count was 16 (of 16 available processors)

Solution count 7: 2620 2716 2842 ... 3530

Optimal solution found (tolerance 1.00e-04)
Best objective 2.620000000000e+03, best bound 2.620000000000e+03, gap 0.0000%
Warning: constraint name "precedence between 0,0 to 0,1 if x_[0,0,0,1,0]=0, i.e. 0,1 before 0,0" has a space
Warning: constraint name "precedence between 0,0 to 0,1 if x_[0,0,0,1,0]=0, i.e. 0,1 before 0,0" has a space
Warning: default constraint names used to write mps file
